Running for instance ./models/rc107.txt
Generating routes...
Execution time:  0.400445366667  minutes
Academic license - for non-commercial use only
Warning: constraint name "Cliente esta na rota" has a space
Optimize a model with 26 rows, 5000 columns and 32177 nonzeros
Variable types: 0 continuous, 5000 integer (0 binary)
Coefficient statistics:
  Matrix range     [1e+00, 1e+00]
  Objective range  [7e+01, 2e+02]
  Bounds range     [1e+00, 1e+00]
  RHS range        [1e+00, 2e+01]
Found heuristic solution: objective 857.4807172
Presolve removed 0 rows and 2318 columns
Presolve time: 0.03s
Presolved: 26 rows, 2682 columns, 17147 nonzeros
Found heuristic solution: objective 808.6020003
Variable types: 0 continuous, 2682 integer (2682 binary)

Root relaxation: objective 4.023794e+02, 60 iterations, 0.00 seconds

    Nodes    |    Current Node    |     Objective Bounds      |     Work
 Expl Unexpl |  Obj  Depth IntInf | Incumbent    BestBd   Gap | It/Node Time

     0     0  402.37941    0   11  808.60200  402.37941  50.2%     -    0s
H    0     0                     489.2496485  402.37941  17.8%     -    0s
H    0     0                     485.2731501  402.37941  17.1%     -    0s
H    0     0                     483.5229184  402.37941  16.8%     -    0s
     0     0  424.63105    0   11  483.52292  424.63105  12.2%     -    0s
H    0     0                     475.5103213  424.63105  10.7%     -    0s
H    0     0                     474.7588537  424.63105  10.6%     -    0s
     0     0  426.46653    0    7  474.75885  426.46653  10.2%     -    0s
     0     0  428.34944    0    6  474.75885  428.34944  9.78%     -    0s
     0     0  428.40820    0    6  474.75885  428.40820  9.76%     -    0s
H    0     0                     474.7230769  428.40820  9.76%     -    0s
     0     0  428.92693    0    5  474.72308  428.92693  9.65%     -    0s
     0     0  428.92693    0   11  474.72308  428.92693  9.65%     -    0s
H    0     0                     469.3818429  428.92693  8.62%     -    0s
     0     0  449.23875    0    9  469.38184  449.23875  4.29%     -    0s
     0     0  452.08986    0   11  469.38184  452.08986  3.68%     -    0s
     0     0  453.85059    0   12  469.38184  453.85059  3.31%     -    0s
     0     0  454.57882    0   15  469.38184  454.57882  3.15%     -    0s
     0     0  455.02967    0   16  469.38184  455.02967  3.06%     -    0s
     0     0  455.13741    0   17  469.38184  455.13741  3.03%     -    0s
     0     0  455.19890    0   19  469.38184  455.19890  3.02%     -    0s
     0     0  457.94566    0   21  469.38184  457.94566  2.44%     -    0s
     0     0  457.94566    0    7  469.38184  457.94566  2.44%     -    0s
*    0     0               0     460.4316783  460.43168  0.00%     -    0s

Cutting planes:
  Gomory: 1

Explored 1 nodes (266 simplex iterations) in 0.15 seconds
Thread count was 8 (of 8 available processors)

Solution count 10: 460.432 469.382 474.723 ... 822.564

Optimal solution found (tolerance 1.00e-04)
Best objective 4.604316783126e+02, best bound 4.604316783126e+02, gap 0.0000%
22 21 23
2 7 8 5 3 1 6
19 18 25 20
11 12 14 16 15 9 13
Distance: 460.431678313
Execution time:  0.4083814  minutes
